data/hard_3.dzn
num_nodi = 8;
ufficio_postale = 7;
dim_borsa = 20;
max_step = 32;
elenco_lettere = [9, 3, 3, 19, 20, 10, 0, 0];
distanze = [|0, 14, 20, 3, 24, 10, 24, 17
|22, 0, 17, 12, 20, 10, 3, 20
|16, 19, 0, 6, 1, 9, 15, 19
|6, 11, 17, 0, 8, 6, 10, 13
|15, 9, 21, 16, 0, 24, 15, 24
|22, 13, 12, 11, 19, 0, 2, 8
|15, 23, 2, 18, 17, 1, 0, 10
|10, 11, 18, 3, 21, 9, 13, 0
|];
