data/hard_3.lp
node(1..8).

ufficio_postale(7).

dim_borsa(20).

time(1..32).

lettere(1,9).
lettere(2,3).
lettere(3,3).
lettere(4,19).
lettere(5,20).
lettere(6,10).
lettere(7,0).
lettere(8,0).

costo_arco(1, 1, 0).
costo_arco(1, 2, 14).
costo_arco(1, 3, 20).
costo_arco(1, 4, 3).
costo_arco(1, 5, 24).
costo_arco(1, 6, 10).
costo_arco(1, 7, 24).
costo_arco(1, 8, 17).

costo_arco(2, 1, 22).
costo_arco(2, 2, 0).
costo_arco(2, 3, 17).
costo_arco(2, 4, 12).
costo_arco(2, 5, 20).
costo_arco(2, 6, 10).
costo_arco(2, 7, 3).
costo_arco(2, 8, 20).

costo_arco(3, 1, 16).
costo_arco(3, 2, 19).
costo_arco(3, 3, 0).
costo_arco(3, 4, 6).
costo_arco(3, 5, 1).
costo_arco(3, 6, 9).
costo_arco(3, 7, 15).
costo_arco(3, 8, 19).

costo_arco(4, 1, 6).
costo_arco(4, 2, 11).
costo_arco(4, 3, 17).
costo_arco(4, 4, 0).
costo_arco(4, 5, 8).
costo_arco(4, 6, 6).
costo_arco(4, 7, 10).
costo_arco(4, 8, 13).

costo_arco(5, 1, 15).
costo_arco(5, 2, 9).
costo_arco(5, 3, 21).
costo_arco(5, 4, 16).
costo_arco(5, 5, 0).
costo_arco(5, 6, 24).
costo_arco(5, 7, 15).
costo_arco(5, 8, 24).

costo_arco(6, 1, 22).
costo_arco(6, 2, 13).
costo_arco(6, 3, 12).
costo_arco(6, 4, 11).
costo_arco(6, 5, 19).
costo_arco(6, 6, 0).
costo_arco(6, 7, 2).
costo_arco(6, 8, 8).

costo_arco(7, 1, 15).
costo_arco(7, 2, 23).
costo_arco(7, 3, 2).
costo_arco(7, 4, 18).
costo_arco(7, 5, 17).
costo_arco(7, 6, 1).
costo_arco(7, 7, 0).
costo_arco(7, 8, 10).

costo_arco(8, 1, 10).
costo_arco(8, 2, 11).
costo_arco(8, 3, 18).
costo_arco(8, 4, 3).
costo_arco(8, 5, 21).
costo_arco(8, 6, 9).
costo_arco(8, 7, 13).
costo_arco(8, 8, 0).

